param N:= 4;
param M:= 100;

param nu := 1.0;

param X : 1 2 3 4:=
1 5.1 3.5 1.4 0.2
2 4.9 3.0 1.4 0.2
3 4.7 3.2 1.3 0.2
4 4.6 3.1 1.5 0.2
5 5.0 3.6 1.4 0.2
6 5.4 3.9 1.7 0.4
7 4.6 3.4 1.4 0.3
8 5.0 3.4 1.5 0.2
9 4.4 2.9 1.4 0.2
10 4.9 3.1 1.5 0.1
11 5.4 3.7 1.5 0.2
12 4.8 3.4 1.6 0.2
13 4.8 3.0 1.4 0.1
14 4.3 3.0 1.1 0.1
15 5.8 4.0 1.2 0.2
16 5.7 4.4 1.5 0.4
17 5.4 3.9 1.3 0.4
18 5.1 3.5 1.4 0.3
19 5.7 3.8 1.7 0.3
20 5.1 3.8 1.5 0.3
21 5.4 3.4 1.7 0.2
22 5.1 3.7 1.5 0.4
23 4.6 3.6 1.0 0.2
24 5.1 3.3 1.7 0.5
25 4.8 3.4 1.9 0.2
26 5.0 3.0 1.6 0.2
27 5.0 3.4 1.6 0.4
28 5.2 3.5 1.5 0.2
29 5.2 3.4 1.4 0.2
30 4.7 3.2 1.6 0.2
31 4.8 3.1 1.6 0.2
32 5.4 3.4 1.5 0.4
33 5.2 4.1 1.5 0.1
34 5.5 4.2 1.4 0.2
35 4.9 3.1 1.5 0.1
36 5.0 3.2 1.2 0.2
37 5.5 3.5 1.3 0.2
38 4.9 3.1 1.5 0.1
39 4.4 3.0 1.3 0.2
40 5.1 3.4 1.5 0.2
41 5.0 3.5 1.3 0.3
42 4.5 2.3 1.3 0.3
43 4.4 3.2 1.3 0.2
44 5.0 3.5 1.6 0.6
45 5.1 3.8 1.9 0.4
46 4.8 3.0 1.4 0.3
47 5.1 3.8 1.6 0.2
48 4.6 3.2 1.4 0.2
49 5.3 3.7 1.5 0.2
50 5.0 3.3 1.4 0.2
51 7.0 3.2 4.7 1.4
52 6.4 3.2 4.5 1.5
53 6.9 3.1 4.9 1.5
54 5.5 2.3 4.0 1.3
55 6.5 2.8 4.6 1.5
56 5.7 2.8 4.5 1.3
57 6.3 3.3 4.7 1.6
58 4.9 2.4 3.3 1.0
59 6.6 2.9 4.6 1.3
60 5.2 2.7 3.9 1.4
61 5.0 2.0 3.5 1.0
62 5.9 3.0 4.2 1.5
63 6.0 2.2 4.0 1.0
64 6.1 2.9 4.7 1.4
65 5.6 2.9 3.6 1.3
66 6.7 3.1 4.4 1.4
67 5.6 3.0 4.5 1.5
68 5.8 2.7 4.1 1.0
69 6.2 2.2 4.5 1.5
70 5.6 2.5 3.9 1.1
71 5.9 3.2 4.8 1.8
72 6.1 2.8 4.0 1.3
73 6.3 2.5 4.9 1.5
74 6.1 2.8 4.7 1.2
75 6.4 2.9 4.3 1.3
76 6.6 3.0 4.4 1.4
77 6.8 2.8 4.8 1.4
78 6.7 3.0 5.0 1.7
79 6.0 2.9 4.5 1.5
80 5.7 2.6 3.5 1.0
81 5.5 2.4 3.8 1.1
82 5.5 2.4 3.7 1.0
83 5.8 2.7 3.9 1.2
84 6.0 2.7 5.1 1.6
85 5.4 3.0 4.5 1.5
86 6.0 3.4 4.5 1.6
87 6.7 3.1 4.7 1.5
88 6.3 2.3 4.4 1.3
89 5.6 3.0 4.1 1.3
90 5.5 2.5 4.0 1.3
91 5.5 2.6 4.4 1.2
92 6.1 3.0 4.6 1.4
93 5.8 2.6 4.0 1.2
94 5.0 2.3 3.3 1.0
95 5.6 2.7 4.2 1.3
96 5.7 3.0 4.2 1.2
97 5.7 2.9 4.2 1.3
98 6.2 2.9 4.3 1.3
99 5.1 2.5 3.0 1.1
100 5.7 2.8 4.1 1.3
;

param y :=
1 1.0
2 1.0
3 1.0
4 1.0
5 1.0
6 1.0
7 1.0
8 1.0
9 1.0
10 1.0
11 1.0
12 1.0
13 1.0
14 1.0
15 1.0
16 1.0
17 1.0
18 1.0
19 1.0
20 1.0
21 1.0
22 1.0
23 1.0
24 1.0
25 1.0
26 1.0
27 1.0
28 1.0
29 1.0
30 1.0
31 1.0
32 1.0
33 1.0
34 1.0
35 1.0
36 1.0
37 1.0
38 1.0
39 1.0
40 1.0
41 1.0
42 1.0
43 1.0
44 1.0
45 1.0
46 1.0
47 1.0
48 1.0
49 1.0
50 1.0
51 -1.0
52 -1.0
53 -1.0
54 -1.0
55 -1.0
56 -1.0
57 -1.0
58 -1.0
59 -1.0
60 -1.0
61 -1.0
62 -1.0
63 -1.0
64 -1.0
65 -1.0
66 -1.0
67 -1.0
68 -1.0
69 -1.0
70 -1.0
71 -1.0
72 -1.0
73 -1.0
74 -1.0
75 -1.0
76 -1.0
77 -1.0
78 -1.0
79 -1.0
80 -1.0
81 -1.0
82 -1.0
83 -1.0
84 -1.0
85 -1.0
86 -1.0
87 -1.0
88 -1.0
89 -1.0
90 -1.0
91 -1.0
92 -1.0
93 -1.0
94 -1.0
95 -1.0
96 -1.0
97 -1.0
98 -1.0
99 -1.0
100 -1.0
;

